%SETS
JOBS     = 1..10;
MACHINES = 1..25;
SPEED    = 5;

time        = array3d(JOBS,MACHINES,1..SPEED,[58, 20, 14, 11, 10, 2, 1, 1, 1, 1, 1, 1, 1, 1, 1, 4, 1, 1, 1, 1, 54, 18, 13, 11, 9, 2, 1, 1, 1, 1, 14, 4, 3, 2, 2, 81, 28, 20, 16, 14, 19, 6, 4, 4, 3, 30, 10, 7, 6, 5, 9, 3, 2, 1, 1, 30, 10, 7, 6, 5, 46, 16, 11, 9, 8, 1, 1, 1, 1, 1, 35, 12, 8, 7, 6, 116, 40, 28, 23, 20, 35, 12, 8, 7, 6, 8, 2, 2, 1, 1, 40, 13, 9, 8, 7, 2, 1, 1, 1, 1, 15, 5, 3, 3, 2, 61, 21, 15, 12, 11, 8, 3, 2, 1, 1, 8, 3, 2, 1, 1, 3, 1, 1, 1, 1, 1, 1, 1, 1, 1, 29, 10, 7, 5, 5, 6, 2, 1, 1, 1, 7, 2, 1, 1, 1, 17, 6, 4, 3, 3, 1, 1, 1, 1, 1, 22, 7, 5, 4, 3, 4, 1, 1, 1, 1, 23, 7, 5, 4, 4, 31, 10, 7, 6, 5, 2, 1, 1, 1, 1, 13, 4, 3, 2, 2, 30, 10, 7, 6, 5, 13, 4, 3, 2, 2, 1, 1, 1, 1, 1, 19, 6, 4, 4, 3, 28, 9, 6, 5, 5, 18, 6, 4, 3, 3, 74, 25, 18, 15, 13, 22, 7, 5, 4, 4, 60, 20, 14, 12, 10, 3, 1, 1, 1, 1, 3, 1, 1, 1, 1, 42, 14, 10, 8, 7, 13, 4, 3, 2, 2, 4, 1, 1, 1, 1, 67, 23, 16, 13, 12, 11, 3, 2, 2, 1, 35, 12, 8, 7, 6, 33, 11, 8, 6, 6, 55, 19, 13, 11, 10, 25, 8, 6, 5, 4, 35, 12, 8, 7, 6, 11, 3, 2, 2, 1, 8, 2, 1, 1, 1, 58, 20, 14, 11, 10, 14, 4, 3, 2, 2, 86, 29, 21, 17, 15, 28, 9, 6, 5, 5, 25, 8, 6, 5, 4, 3, 1, 1, 1, 1, 77, 26, 18, 15, 13, 15, 5, 3, 3, 2, 22, 7, 5, 4, 4, 13, 4, 3, 2, 2, 7, 2, 1, 1, 1, 60, 20, 14, 12, 10, 22, 7, 5, 4, 3, 1, 1, 1, 1, 1, 24, 8, 6, 5, 4, 10, 3, 2, 2, 1, 19, 6, 4, 3, 3, 56, 19, 13, 11, 10, 11, 3, 2, 2, 2, 61, 21, 15, 12, 11, 25, 8, 6, 5, 4, 1, 1, 1, 1, 1, 68, 23, 16, 13, 12, 30, 10, 7, 6, 5, 153, 52, 37, 31, 27, 4, 1, 1, 1, 1, 3, 1, 1, 1, 1, 69, 24, 17, 14, 12, 30, 10, 7, 6, 5, 1, 1, 1, 1, 1, 36, 12, 8, 7, 6, 36, 12, 8, 7, 6, 66, 22, 16, 13, 11, 32, 11, 7, 6, 5, 3, 1, 1, 1, 1, 1, 1, 1, 1, 1, 1, 1, 1, 1, 1, 1, 1, 1, 1, 1, 7, 2, 1, 1, 1, 50, 17, 12, 10, 9, 20, 6, 4, 4, 3, 20, 7, 5, 4, 3, 47, 16, 11, 9, 8, 3, 1, 1, 1, 1, 8, 2, 2, 1, 1, 22, 7, 5, 4, 4, 90, 31, 22, 18, 16, 21, 7, 5, 4, 3, 1, 1, 1, 1, 1, 41, 14, 10, 8, 7, 6, 2, 1, 1, 1, 42, 14, 10, 8, 7, 12, 4, 3, 2, 2, 51, 17, 12, 10, 9, 35, 12, 8, 7, 6, 21, 7, 5, 4, 3, 3, 1, 1, 1, 1, 1, 1, 1, 1, 1, 3, 1, 1, 1, 1, 1, 1, 1, 1, 1, 2, 1, 1, 1, 1, 6, 2, 1, 1, 1, 32, 11, 7, 6, 5, 21, 7, 5, 4, 3, 1, 1, 1, 1, 1, 1, 1, 1, 1, 1, 88, 30, 21, 18, 15, 21, 7, 5, 4, 3, 5, 2, 1, 1, 1, 7, 2, 1, 1, 1, 35, 12, 8, 7, 6, 5, 1, 1, 1, 1, 22, 7, 5, 4, 4, 90, 31, 22, 18, 16, 48, 16, 11, 9, 8, 7, 2, 1, 1, 1, 17, 6, 4, 3, 3, 25, 8, 6, 5, 4, 45, 15, 11, 9, 8, 4, 1, 1, 1, 1, 1, 1, 1, 1, 1, 1, 1, 1, 1, 1, 17, 5, 4, 3, 3, 24, 8, 5, 4, 4, 21, 7, 5, 4, 3, 9, 3, 2, 2, 1, 115, 39, 28, 23, 20, 22, 7, 5, 4, 4, 12, 4, 3, 2, 2, 20, 7, 5, 4, 3, 35, 12, 8, 7, 6, 28, 9, 7, 5, 5, 7, 2, 1, 1, 1, 1, 1, 1, 1, 1, 11, 4, 2, 2, 2, 25, 8, 6, 5, 4, 6, 2, 1, 1, 1, 36, 12, 8, 7, 6, 1, 1, 1, 1, 1, 7, 2, 1, 1, 1, 42, 14, 10, 8, 7, 5, 1, 1, 1, 1, 26, 9, 6, 5, 4, 19, 6, 4, 3, 3, 66, 23, 16, 13, 12, 7, 2, 1, 1, 1, 1, 1, 1, 1, 1, 34, 11, 8, 6, 6, 38, 13, 9, 7, 6, 61, 21, 15, 12, 11, 69, 24, 17, 14, 12, 1, 1, 1, 1, 1, 6, 2, 1, 1, 1, 24, 8, 6, 5, 4, 77, 26, 18, 15, 13, 77, 26, 19, 15, 13, 21, 7, 5, 4, 3, 63, 22, 15, 13, 11, 26, 9, 6, 5, 4, 12, 4, 3, 2, 2, 17, 5, 4, 3, 3, 23, 8, 5, 4, 4, 20, 7, 5, 4, 3, 67, 23, 16, 13, 12, 64, 22, 15, 13, 11, 12, 4, 3, 2, 2, 85, 29, 20, 17, 15, 4, 1, 1, 1, 1, 3, 1, 1, 1, 1, 3, 1, 1, 1, 1, 18, 6, 4, 3, 3, 1, 1, 1, 1, 1, 76, 26, 18, 15, 13, 45, 15, 11, 9, 8, 1, 1, 1, 1, 1, 5, 1, 1, 1, 1, 10, 3, 2, 2, 1, 3, 1, 1, 1, 1, 42, 14, 10, 8, 7, 10, 3, 2, 2, 1, 72, 25, 17, 14, 13, 22, 7, 5, 4, 4, 54, 18, 13, 11, 9, 48, 16, 11, 9, 8, 61, 21, 14, 12, 10, 15, 5, 3, 3, 2, 20, 7, 5, 4, 3, 41, 14, 10, 8, 7, 8, 3, 2, 1, 1, 17, 6, 4, 3, 3, 23, 8, 5, 4, 4, 1, 1, 1, 1, 1, 23, 8, 5, 4, 4, 14, 5, 3, 2, 2, 42, 14, 10, 8, 7, 9, 3, 2, 1, 1, 57, 19, 14, 11, 10, 22, 7, 5, 4, 4, 5, 1, 1, 1, 1, 40, 13, 9, 8, 7, 24, 8, 6, 4, 4, 1, 1, 1, 1, 1, 14, 4, 3, 2, 2, 29, 10, 7, 5, 5, 64, 22, 15, 13, 11, 1, 1, 1, 1, 1, 97, 33, 23, 19, 17, 12, 4, 2, 2, 2, 94, 32, 23, 19, 16, 24, 8, 5, 4, 4, 45, 15, 11, 9, 8, 22, 7, 5, 4, 3, 25, 8, 6, 5, 4, 8, 3, 2, 1, 1, 22, 7, 5, 4, 4, 35, 12, 8, 7, 6, 50, 17, 12, 10, 9, 36, 12, 8, 7, 6, 30, 10, 7, 6, 5, 51, 17, 12, 10, 9, 10, 3, 2, 2, 1, 28, 9, 7, 5, 5, 15, 5, 3, 3, 2, 12, 4, 3, 2, 2, 13, 4, 3, 2, 2, 13, 4, 3, 2, 2, 9, 3, 2, 2, 1, 25, 8, 6, 5, 4, 14, 5, 3, 2, 2, 94, 32, 23, 19, 16]);
energy      = array3d(JOBS,MACHINES,1..SPEED,[55, 81, 86, 89, 90, 98, 99, 99, 99, 99, 99, 99, 99, 99, 99, 96, 99, 99, 99, 99, 58, 83, 87, 89, 91, 98, 99, 99, 99, 99, 86, 96, 97, 98, 98, 44, 75, 81, 85, 86, 82, 94, 96, 96, 97, 74, 90, 93, 94, 95, 91, 97, 98, 99, 99, 74, 90, 93, 94, 95, 63, 85, 89, 91, 92, 99, 99, 99, 99, 99, 70, 88, 92, 93, 94, 31, 67, 75, 79, 81, 70, 88, 92, 93, 94, 92, 98, 98, 99, 99, 67, 87, 91, 92, 93, 98, 99, 99, 99, 99, 86, 95, 97, 97, 98, 54, 81, 86, 88, 89, 92, 97, 98, 99, 99, 92, 97, 98, 99, 99, 97, 99, 99, 99, 99, 99, 99, 99, 99, 99, 74, 90, 93, 95, 95, 94, 98, 99, 99, 99, 93, 98, 99, 99, 99, 84, 94, 96, 97, 97, 99, 99, 99, 99, 99, 80, 93, 95, 96, 97, 96, 99, 99, 99, 99, 79, 93, 95, 96, 96, 73, 90, 93, 94, 95, 98, 99, 99, 99, 99, 87, 96, 97, 98, 98, 74, 90, 93, 94, 95, 87, 96, 97, 98, 98, 99, 99, 99, 99, 99, 82, 94, 96, 96, 97, 75, 91, 94, 95, 95, 83, 94, 96, 97, 97, 47, 77, 83, 86, 87, 80, 93, 95, 96, 96, 54, 81, 86, 88, 90, 97, 99, 99, 99, 99, 97, 99, 99, 99, 99, 65, 86, 90, 92, 93, 87, 96, 97, 98, 98, 96, 99, 99, 99, 99, 51, 79, 85, 87, 88, 89, 97, 98, 98, 99, 70, 88, 92, 93, 94, 71, 89, 92, 94, 94, 57, 82, 87, 89, 90, 77, 92, 94, 95, 96, 70, 88, 92, 93, 94, 89, 97, 98, 98, 99, 92, 98, 99, 99, 99, 55, 81, 86, 89, 90, 86, 96, 97, 98, 98, 42, 74, 81, 84, 86, 75, 91, 94, 95, 95, 77, 92, 94, 95, 96, 97, 99, 99, 99, 99, 46, 77, 83, 86, 87, 86, 95, 97, 97, 98, 80, 93, 95, 96, 96, 87, 96, 97, 98, 98, 93, 98, 99, 99, 99, 54, 81, 86, 88, 90, 80, 93, 95, 96, 97, 99, 99, 99, 99, 99, 78, 92, 94, 95, 96, 90, 97, 98, 98, 99, 82, 94, 96, 97, 97, 57, 82, 87, 89, 90, 89, 97, 98, 98, 98, 54, 81, 86, 88, 89, 77, 92, 94, 95, 96, 99, 99, 99, 99, 99, 50, 79, 85, 87, 88, 74, 90, 93, 94, 95, 21, 59, 69, 73, 76, 96, 99, 99, 99, 99, 97, 99, 99, 99, 99, 50, 78, 84, 86, 88, 74, 90, 93, 94, 95, 99, 99, 99, 99, 99, 69, 88, 92, 93, 94, 69, 88, 92, 93, 94, 51, 80, 85, 87, 89, 72, 89, 93, 94, 95, 97, 99, 99, 99, 99, 99, 99, 99, 99, 99, 99, 99, 99, 99, 99, 99, 99, 99, 99, 99, 93, 98, 99, 99, 99, 60, 84, 88, 90, 91, 81, 94, 96, 96, 97, 81, 93, 95, 96, 97, 62, 85, 89, 91, 92, 97, 99, 99, 99, 99, 92, 98, 98, 99, 99, 80, 93, 95, 96, 96, 40, 73, 80, 83, 85, 81, 93, 95, 96, 97, 99, 99, 99, 99, 99, 66, 86, 90, 92, 93, 94, 98, 99, 99, 99, 65, 86, 90, 92, 93, 88, 96, 97, 98, 98, 60, 84, 88, 90, 91, 70, 88, 92, 93, 94, 81, 93, 95, 96, 97, 97, 99, 99, 99, 99, 99, 99, 99, 99, 99, 97, 99, 99, 99, 99, 99, 99, 99, 99, 99, 98, 99, 99, 99, 99, 94, 98, 99, 99, 99, 72, 89, 93, 94, 95, 81, 93, 95, 96, 97, 99, 99, 99, 99, 99, 99, 99, 99, 99, 99, 41, 74, 81, 83, 86, 81, 93, 95, 96, 97, 95, 98, 99, 99, 99, 93, 98, 99, 99, 99, 70, 88, 92, 93, 94, 95, 99, 99, 99, 99, 80, 93, 95, 96, 96, 40, 73, 80, 83, 85, 61, 85, 89, 91, 92, 93, 98, 99, 99, 99, 84, 94, 96, 97, 97, 77, 92, 94, 95, 96, 63, 86, 89, 91, 92, 96, 99, 99, 99, 99, 99, 99, 99, 99, 99, 99, 99, 99, 99, 99, 84, 95, 96, 97, 97, 78, 92, 95, 96, 96, 81, 93, 95, 96, 97, 91, 97, 98, 98, 99, 31, 67, 75, 79, 81, 80, 93, 95, 96, 96, 88, 96, 97, 98, 98, 81, 93, 95, 96, 97, 70, 88, 92, 93, 94, 75, 91, 93, 95, 95, 93, 98, 99, 99, 99, 99, 99, 99, 99, 99, 89, 96, 98, 98, 98, 77, 92, 94, 95, 96, 94, 98, 99, 99, 99, 69, 88, 92, 93, 94, 99, 99, 99, 99, 99, 93, 98, 99, 99, 99, 65, 86, 90, 92, 93, 95, 99, 99, 99, 99, 77, 91, 94, 95, 96, 82, 94, 96, 97, 97, 51, 79, 85, 87, 88, 93, 98, 99, 99, 99, 99, 99, 99, 99, 99, 71, 89, 92, 94, 94, 68, 87, 91, 93, 94, 54, 81, 86, 88, 89, 50, 78, 84, 86, 88, 99, 99, 99, 99, 99, 94, 98, 99, 99, 99, 78, 92, 94, 95, 96, 46, 77, 83, 86, 87, 46, 77, 82, 86, 87, 81, 93, 95, 96, 97, 53, 80, 86, 87, 89, 77, 91, 94, 95, 96, 88, 96, 97, 98, 98, 84, 95, 96, 97, 97, 79, 92, 95, 96, 96, 81, 93, 95, 96, 97, 51, 79, 85, 87, 88, 52, 80, 86, 87, 89, 88, 96, 97, 98, 98, 42, 74, 81, 84, 86, 96, 99, 99, 99, 99, 97, 99, 99, 99, 99, 97, 99, 99, 99, 99, 83, 94, 96, 97, 97, 99, 99, 99, 99, 99, 46, 77, 83, 86, 87, 63, 86, 89, 91, 92, 99, 99, 99, 99, 99, 95, 99, 99, 99, 99, 90, 97, 98, 98, 99, 97, 99, 99, 99, 99, 65, 86, 90, 92, 93, 90, 97, 98, 98, 99, 48, 77, 84, 86, 87, 80, 93, 95, 96, 96, 58, 83, 87, 89, 91, 61, 85, 89, 91, 92, 54, 81, 86, 88, 90, 86, 95, 97, 97, 98, 81, 93, 95, 96, 97, 66, 86, 90, 92, 93, 92, 97, 98, 99, 99, 84, 94, 96, 97, 97, 79, 92, 95, 96, 96, 99, 99, 99, 99, 99, 79, 92, 95, 96, 96, 86, 95, 97, 98, 98, 65, 86, 90, 92, 93, 91, 97, 98, 99, 99, 56, 82, 86, 89, 90, 80, 93, 95, 96, 96, 95, 99, 99, 99, 99, 67, 87, 91, 92, 93, 78, 92, 94, 96, 96, 99, 99, 99, 99, 99, 86, 96, 97, 98, 98, 74, 90, 93, 95, 95, 52, 80, 86, 87, 89, 99, 99, 99, 99, 99, 37, 71, 79, 82, 84, 88, 96, 98, 98, 98, 39, 72, 79, 82, 85, 78, 92, 95, 96, 96, 63, 86, 89, 91, 92, 80, 93, 95, 96, 97, 77, 92, 94, 95, 96, 92, 97, 98, 99, 99, 80, 93, 95, 96, 96, 70, 88, 92, 93, 94, 60, 84, 88, 90, 91, 69, 88, 92, 93, 94, 74, 90, 93, 94, 95, 60, 84, 88, 90, 91, 90, 97, 98, 98, 99, 75, 91, 93, 95, 95, 86, 95, 97, 97, 98, 88, 96, 97, 98, 98, 87, 96, 97, 98, 98, 87, 96, 97, 98, 98, 91, 97, 98, 98, 99, 77, 92, 94, 95, 96, 86, 95, 97, 98, 98, 39, 72, 79, 82, 85]);
precedence  = array2d(JOBS,MACHINES,[21, 20, 15, 6, 18, 17, 22, 11, 5, 13, 7, 8, 3, 1, 24, 12, 4, 23, 2, 16, 0, 9, 19, 10, 14, 22, 5, 24, 10, 19, 16, 1, 3, 9, 6, 18, 12, 23, 11, 2, 20, 8, 13, 7, 4, 14, 15, 21, 17, 0, 21, 11, 3, 8, 18, 0, 24, 17, 6, 5, 22, 14, 13, 9, 20, 12, 10, 16, 19, 4, 23, 7, 15, 1, 2, 15, 14, 7, 1, 6, 0, 11, 19, 17, 3, 21, 13, 16, 23, 8, 10, 2, 12, 18, 22, 5, 9, 24, 20, 4, 8, 24, 13, 12, 1, 3, 21, 2, 6, 0, 7, 14, 15, 23, 9, 11, 4, 17, 5, 18, 22, 20, 16, 10, 19, 22, 6, 23, 4, 12, 9, 13, 2, 24, 18, 0, 8, 3, 7, 20, 1, 5, 21, 11, 19, 16, 14, 10, 15, 17, 8, 12, 3, 18, 23, 19, 4, 10, 5, 16, 9, 7, 22, 1, 11, 0, 14, 2, 20, 13, 15, 24, 17, 6, 21, 23, 19, 13, 6, 9, 20, 5, 16, 7, 21, 1, 22, 12, 15, 0, 3, 8, 17, 24, 18, 14, 10, 11, 4, 2, 14, 24, 22, 10, 0, 8, 5, 18, 20, 9, 12, 3, 7, 16, 15, 13, 17, 1, 11, 19, 2, 4, 23, 6, 21, 16, 1, 9, 10, 11, 24, 0, 17, 2, 5, 21, 4, 12, 23, 18, 22, 7, 20, 8, 15, 19, 3, 13, 14, 6]);
releaseDate = array2d(JOBS,MACHINES,[311, 310, 291, 144, 294, 293, 328, 177, 140, 282, 145, 147, 112, 93, 334, 221, 129, 332, 94, 292, 90, 154, 308, 175, 290, 233, 100, 252, 168, 218, 206, 83, 91, 155, 111, 217, 172, 234, 169, 90, 228, 147, 175, 119, 92, 181, 205, 232, 207, 80, 308, 198, 122, 148, 276, 100, 326, 268, 129, 128, 309, 246, 218, 156, 294, 217, 164, 263, 288, 124, 325, 132, 250, 114, 115, 377, 373, 267, 68, 222, 60, 314, 423, 406, 90, 442, 372, 380, 445, 285, 287, 70, 315, 416, 444, 221, 286, 456, 441, 207, 108, 225, 144, 143, 90, 98, 188, 92, 106, 60, 107, 159, 170, 211, 117, 133, 103, 184, 105, 185, 210, 187, 175, 125, 186, 186, 15, 188, 13, 106, 60, 108, 2, 196, 160, 0, 55, 7, 43, 180, 1, 14, 182, 99, 174, 153, 110, 90, 150, 155, 70, 127, 57, 183, 250, 184, 58, 88, 59, 180, 78, 69, 241, 41, 98, 40, 157, 47, 191, 134, 158, 253, 182, 60, 208, 269, 192, 147, 111, 138, 198, 104, 168, 120, 204, 71, 222, 146, 167, 70, 78, 137, 173, 295, 191, 166, 142, 145, 82, 75, 115, 252, 234, 96, 30, 87, 61, 173, 211, 91, 108, 59, 81, 146, 134, 113, 149, 44, 107, 183, 53, 60, 247, 66, 213, 171, 14, 112, 114, 139, 229, 0, 172, 43, 60, 203, 47, 147, 222, 181, 220, 100, 200, 107, 167, 197, 45, 158, 164, 69]);
dueDate     = array2d(JOBS,MACHINES,[328, 311, 292, 145, 308, 294, 332, 221, 144, 290, 147, 154, 129, 94, 342, 282, 140, 334, 112, 293, 93, 175, 310, 177, 291, 234, 111, 253, 169, 228, 207, 90, 92, 168, 119, 218, 175, 252, 172, 91, 232, 155, 181, 147, 100, 205, 206, 233, 217, 83, 309, 217, 124, 156, 288, 114, 333, 276, 132, 129, 325, 250, 246, 164, 308, 218, 198, 268, 294, 128, 326, 148, 263, 115, 122, 380, 377, 285, 70, 267, 68, 315, 441, 416, 207, 444, 373, 406, 456, 286, 314, 90, 372, 423, 445, 222, 287, 457, 442, 221, 117, 231, 159, 144, 92, 103, 210, 98, 107, 90, 108, 170, 175, 225, 125, 143, 105, 185, 106, 186, 211, 188, 184, 133, 187, 188, 43, 196, 14, 108, 90, 110, 7, 237, 174, 1, 60, 13, 55, 182, 2, 15, 186, 106, 180, 155, 150, 99, 153, 160, 78, 134, 58, 184, 253, 191, 59, 98, 60, 182, 88, 70, 250, 47, 127, 41, 158, 57, 208, 157, 180, 254, 183, 69, 241, 295, 198, 166, 120, 142, 204, 111, 173, 137, 222, 75, 269, 147, 168, 71, 82, 138, 191, 309, 192, 167, 145, 146, 104, 78, 134, 257, 247, 107, 44, 91, 66, 183, 213, 96, 113, 60, 87, 149, 146, 115, 173, 53, 108, 211, 59, 61, 252, 81, 234, 172, 43, 114, 139, 147, 241, 14, 181, 45, 69, 220, 60, 158, 229, 197, 222, 107, 203, 112, 171, 200, 47, 164, 167, 100]);